DATASET = "thpack5";
INSTANCE = "087";

WIDTH = 233;
HEIGHT = 220;
LENGTH = 587;

NO_OF_SHAPES = 12;
size = [|
  119,34,28 |
  84,69,48 |
  97,82,78 |
  109,43,33 |
  80,75,47 |
  74,62,30 |
  40,35,31 |
  58,43,26 |
  111,73,71 |
  95,66,43 |
  96,82,28 |
  84,73,66 |
|];

verticality = [|
  0,1,1 |
  1,1,1 |
  1,1,1 |
  0,1,1 |
  1,1,1 |
  0,0,1 |
  1,1,1 |
  0,1,1 |
  1,1,1 |
  0,1,1 |
  0,0,1 |
  1,1,1 |
|];

box_count = [
  9,
  13,
  11,
  14,
  8,
  10,
  9,
  8,
  10,
  6,
  9,
  6,
];
